07839.53
17794.76
27704.7
37800.28
48085.41
57700.18
68129.3
77827.75
88028.18
97895.74
107964.08
117751.16
127905.78
137740.67
147960.22
157625.4
168072.39
177784.55
188020.36
197969.09
207902.69
217850.63
228040.88
237881.8
248044.51
257876.09
267761.58
277821.42
288020.89
297978.56
307820.98
317744.46
328051.87
337870.21
347852.18
357906
367619.15
377965.68
387871.05
397871.05
408089.98
417907.65
428059.76
437923.04
448074.81
457802.24
467802.24
477911.27
487872.09
497707.55
